13257 : 2112 2544 
2112 : 15654 13257 
15654 : 2849 2112 
2544 : 13257 20770 
4429 : 19515 2172 
19515 : 13432 4429 
18895 : 18615 
17662 : 18615 13079 
13079 : 17662 21120 
18615 : 18895 17662 
2172 : 21120 4429 
20770 : 2544 15755 
22046 : 17381 
17381 : 22046 4300 
15755 : 20770 19437 
21120 : 13079 2172 12658 
4300 : 17381 12658 
12658 : 4300 21120 
2849 : 15654 
19437 : 21975 15755 
21975 : 19437 13432 
13432 : 21975 19515 
19437 2849 18895 2172 22046 
